\ Model linear program
\ LP format - for model browsing. Use MPS format to capture full model detail.
Maximize
  0 x[0,0] + 0 x[1,1] + 0 x[2,2] + 0 x[3,3] + 0 x[4,4] + y[0]
Subject To
 R0: - x[0,1] - x[0,2] - x[0,3] - x[0,4] + 1.564 x[1,0] + 1.856 x[2,0]
   + 0.9223 x[3,0] + 0.01011 x[4,0] - y[0] = 0
 R1: 0.639 x[0,1] - x[1,0] - x[1,2] - x[1,3] - x[1,4] + 1.186 x[2,1]
   + 0.589 x[3,1] + 0.00645 x[4,1] - y[1] = 0
 R2: 0.537 x[0,2] + 0.843 x[1,2] - x[2,0] - x[2,1] - x[2,3] - x[2,4]
   + 0.496 x[3,2] + 0.00543 x[4,2] - y[2] = 0
 R3: 1.0835 x[0,3] + 1.6958 x[1,3] + 2.014 x[2,3] - x[3,0] - x[3,1]
   - x[3,2] - x[3,4] + 0.01095 x[4,3] - y[3] = 0
 R4: 98.89 x[0,4] + 154.773 x[1,4] + 184.122 x[2,4] + 91.263 x[3,4]
   - x[4,0] - x[4,1] - x[4,2] - x[4,3] - y[4] = 0
 R5: y[0] <= 1
Bounds
End
